c Generated after 3 tries
c Graph with 220 nodes and 600 edges, Max edges:24090
c generated from an undirected graph
c to solve unweighted MaxCut
p cnf 220 1200
1 79 0
-1 -79 0
1 100 0
-1 -100 0
1 111 0
-1 -111 0
1 149 0
-1 -149 0
1 162 0
-1 -162 0
2 4 0
-2 -4 0
2 7 0
-2 -7 0
2 26 0
-2 -26 0
2 34 0
-2 -34 0
2 113 0
-2 -113 0
2 155 0
-2 -155 0
2 202 0
-2 -202 0
2 206 0
-2 -206 0
3 54 0
-3 -54 0
3 67 0
-3 -67 0
3 75 0
-3 -75 0
3 79 0
-3 -79 0
3 189 0
-3 -189 0
4 18 0
-4 -18 0
4 37 0
-4 -37 0
4 42 0
-4 -42 0
4 102 0
-4 -102 0
4 162 0
-4 -162 0
4 197 0
-4 -197 0
5 161 0
-5 -161 0
5 170 0
-5 -170 0
5 171 0
-5 -171 0
5 193 0
-5 -193 0
6 130 0
-6 -130 0
6 145 0
-6 -145 0
6 162 0
-6 -162 0
7 63 0
-7 -63 0
7 69 0
-7 -69 0
7 79 0
-7 -79 0
7 192 0
-7 -192 0
7 213 0
-7 -213 0
8 11 0
-8 -11 0
8 28 0
-8 -28 0
8 67 0
-8 -67 0
8 103 0
-8 -103 0
8 214 0
-8 -214 0
8 215 0
-8 -215 0
9 40 0
-9 -40 0
9 84 0
-9 -84 0
9 129 0
-9 -129 0
9 132 0
-9 -132 0
9 146 0
-9 -146 0
9 160 0
-9 -160 0
9 196 0
-9 -196 0
9 205 0
-9 -205 0
10 50 0
-10 -50 0
10 57 0
-10 -57 0
10 88 0
-10 -88 0
10 94 0
-10 -94 0
10 143 0
-10 -143 0
10 146 0
-10 -146 0
10 167 0
-10 -167 0
10 196 0
-10 -196 0
11 30 0
-11 -30 0
11 38 0
-11 -38 0
11 99 0
-11 -99 0
11 118 0
-11 -118 0
11 148 0
-11 -148 0
11 166 0
-11 -166 0
11 213 0
-11 -213 0
12 82 0
-12 -82 0
13 38 0
-13 -38 0
13 58 0
-13 -58 0
13 63 0
-13 -63 0
13 95 0
-13 -95 0
13 107 0
-13 -107 0
13 125 0
-13 -125 0
13 163 0
-13 -163 0
13 186 0
-13 -186 0
14 53 0
-14 -53 0
14 66 0
-14 -66 0
14 105 0
-14 -105 0
15 19 0
-15 -19 0
15 142 0
-15 -142 0
16 22 0
-16 -22 0
16 85 0
-16 -85 0
16 93 0
-16 -93 0
16 117 0
-16 -117 0
16 165 0
-16 -165 0
16 172 0
-16 -172 0
16 184 0
-16 -184 0
16 193 0
-16 -193 0
16 196 0
-16 -196 0
16 204 0
-16 -204 0
17 26 0
-17 -26 0
17 33 0
-17 -33 0
17 35 0
-17 -35 0
17 41 0
-17 -41 0
17 68 0
-17 -68 0
17 69 0
-17 -69 0
17 146 0
-17 -146 0
18 57 0
-18 -57 0
18 79 0
-18 -79 0
18 105 0
-18 -105 0
18 127 0
-18 -127 0
18 144 0
-18 -144 0
18 184 0
-18 -184 0
18 197 0
-18 -197 0
18 210 0
-18 -210 0
19 28 0
-19 -28 0
19 110 0
-19 -110 0
19 113 0
-19 -113 0
19 125 0
-19 -125 0
19 180 0
-19 -180 0
20 65 0
-20 -65 0
20 211 0
-20 -211 0
20 212 0
-20 -212 0
20 219 0
-20 -219 0
21 35 0
-21 -35 0
22 33 0
-22 -33 0
22 45 0
-22 -45 0
22 177 0
-22 -177 0
23 62 0
-23 -62 0
23 113 0
-23 -113 0
23 127 0
-23 -127 0
23 180 0
-23 -180 0
24 36 0
-24 -36 0
24 67 0
-24 -67 0
24 99 0
-24 -99 0
24 160 0
-24 -160 0
25 60 0
-25 -60 0
25 80 0
-25 -80 0
25 115 0
-25 -115 0
25 150 0
-25 -150 0
25 179 0
-25 -179 0
25 216 0
-25 -216 0
26 71 0
-26 -71 0
26 110 0
-26 -110 0
26 117 0
-26 -117 0
26 129 0
-26 -129 0
26 176 0
-26 -176 0
27 47 0
-27 -47 0
27 51 0
-27 -51 0
27 176 0
-27 -176 0
28 89 0
-28 -89 0
28 90 0
-28 -90 0
28 92 0
-28 -92 0
28 219 0
-28 -219 0
29 125 0
-29 -125 0
29 166 0
-29 -166 0
29 168 0
-29 -168 0
29 174 0
-29 -174 0
30 31 0
-30 -31 0
30 75 0
-30 -75 0
30 157 0
-30 -157 0
30 205 0
-30 -205 0
31 71 0
-31 -71 0
31 165 0
-31 -165 0
31 190 0
-31 -190 0
32 96 0
-32 -96 0
32 130 0
-32 -130 0
32 140 0
-32 -140 0
32 188 0
-32 -188 0
33 122 0
-33 -122 0
33 140 0
-33 -140 0
33 170 0
-33 -170 0
34 62 0
-34 -62 0
34 87 0
-34 -87 0
34 106 0
-34 -106 0
34 133 0
-34 -133 0
34 139 0
-34 -139 0
34 167 0
-34 -167 0
34 168 0
-34 -168 0
34 179 0
-34 -179 0
35 55 0
-35 -55 0
35 192 0
-35 -192 0
36 42 0
-36 -42 0
37 66 0
-37 -66 0
37 106 0
-37 -106 0
37 121 0
-37 -121 0
37 163 0
-37 -163 0
37 166 0
-37 -166 0
37 195 0
-37 -195 0
37 197 0
-37 -197 0
37 212 0
-37 -212 0
38 103 0
-38 -103 0
38 136 0
-38 -136 0
38 153 0
-38 -153 0
38 184 0
-38 -184 0
39 52 0
-39 -52 0
39 75 0
-39 -75 0
39 91 0
-39 -91 0
39 206 0
-39 -206 0
39 214 0
-39 -214 0
40 98 0
-40 -98 0
40 143 0
-40 -143 0
40 205 0
-40 -205 0
40 213 0
-40 -213 0
41 53 0
-41 -53 0
41 105 0
-41 -105 0
41 193 0
-41 -193 0
41 194 0
-41 -194 0
42 49 0
-42 -49 0
42 68 0
-42 -68 0
42 76 0
-42 -76 0
42 94 0
-42 -94 0
42 103 0
-42 -103 0
42 109 0
-42 -109 0
42 197 0
-42 -197 0
42 216 0
-42 -216 0
42 220 0
-42 -220 0
43 58 0
-43 -58 0
43 65 0
-43 -65 0
43 70 0
-43 -70 0
43 86 0
-43 -86 0
43 151 0
-43 -151 0
43 203 0
-43 -203 0
44 55 0
-44 -55 0
44 116 0
-44 -116 0
44 135 0
-44 -135 0
45 110 0
-45 -110 0
45 202 0
-45 -202 0
46 112 0
-46 -112 0
46 114 0
-46 -114 0
46 133 0
-46 -133 0
46 213 0
-46 -213 0
47 87 0
-47 -87 0
47 109 0
-47 -109 0
47 145 0
-47 -145 0
47 189 0
-47 -189 0
47 201 0
-47 -201 0
48 104 0
-48 -104 0
48 120 0
-48 -120 0
48 175 0
-48 -175 0
49 70 0
-49 -70 0
49 166 0
-49 -166 0
49 172 0
-49 -172 0
49 209 0
-49 -209 0
50 81 0
-50 -81 0
50 110 0
-50 -110 0
50 112 0
-50 -112 0
50 129 0
-50 -129 0
50 140 0
-50 -140 0
50 193 0
-50 -193 0
50 219 0
-50 -219 0
51 79 0
-51 -79 0
51 146 0
-51 -146 0
51 202 0
-51 -202 0
52 91 0
-52 -91 0
52 126 0
-52 -126 0
52 183 0
-52 -183 0
52 198 0
-52 -198 0
52 203 0
-52 -203 0
53 73 0
-53 -73 0
53 102 0
-53 -102 0
53 113 0
-53 -113 0
53 144 0
-53 -144 0
54 129 0
-54 -129 0
54 155 0
-54 -155 0
54 183 0
-54 -183 0
54 184 0
-54 -184 0
54 220 0
-54 -220 0
55 156 0
-55 -156 0
55 218 0
-55 -218 0
56 105 0
-56 -105 0
56 189 0
-56 -189 0
56 211 0
-56 -211 0
57 112 0
-57 -112 0
58 84 0
-58 -84 0
58 113 0
-58 -113 0
59 77 0
-59 -77 0
59 146 0
-59 -146 0
59 155 0
-59 -155 0
59 165 0
-59 -165 0
59 166 0
-59 -166 0
59 176 0
-59 -176 0
59 184 0
-59 -184 0
60 134 0
-60 -134 0
60 137 0
-60 -137 0
61 79 0
-61 -79 0
61 91 0
-61 -91 0
61 102 0
-61 -102 0
61 114 0
-61 -114 0
61 119 0
-61 -119 0
61 120 0
-61 -120 0
61 127 0
-61 -127 0
61 166 0
-61 -166 0
61 176 0
-61 -176 0
62 75 0
-62 -75 0
62 105 0
-62 -105 0
62 156 0
-62 -156 0
62 172 0
-62 -172 0
62 173 0
-62 -173 0
62 192 0
-62 -192 0
62 217 0
-62 -217 0
63 77 0
-63 -77 0
63 109 0
-63 -109 0
63 172 0
-63 -172 0
64 201 0
-64 -201 0
65 97 0
-65 -97 0
65 128 0
-65 -128 0
65 140 0
-65 -140 0
65 191 0
-65 -191 0
65 198 0
-65 -198 0
65 215 0
-65 -215 0
66 71 0
-66 -71 0
66 142 0
-66 -142 0
67 68 0
-67 -68 0
67 74 0
-67 -74 0
67 77 0
-67 -77 0
67 103 0
-67 -103 0
67 132 0
-67 -132 0
68 120 0
-68 -120 0
68 155 0
-68 -155 0
68 156 0
-68 -156 0
68 173 0
-68 -173 0
69 171 0
-69 -171 0
70 112 0
-70 -112 0
70 142 0
-70 -142 0
71 91 0
-71 -91 0
71 186 0
-71 -186 0
71 197 0
-71 -197 0
71 216 0
-71 -216 0
72 130 0
-72 -130 0
72 145 0
-72 -145 0
72 167 0
-72 -167 0
72 175 0
-72 -175 0
73 87 0
-73 -87 0
73 91 0
-73 -91 0
73 216 0
-73 -216 0
74 89 0
-74 -89 0
74 106 0
-74 -106 0
74 133 0
-74 -133 0
74 192 0
-74 -192 0
75 127 0
-75 -127 0
75 136 0
-75 -136 0
75 154 0
-75 -154 0
75 173 0
-75 -173 0
75 181 0
-75 -181 0
75 209 0
-75 -209 0
76 118 0
-76 -118 0
76 203 0
-76 -203 0
76 208 0
-76 -208 0
77 140 0
-77 -140 0
77 141 0
-77 -141 0
77 178 0
-77 -178 0
78 96 0
-78 -96 0
78 157 0
-78 -157 0
79 82 0
-79 -82 0
79 94 0
-79 -94 0
81 155 0
-81 -155 0
82 129 0
-82 -129 0
82 137 0
-82 -137 0
82 214 0
-82 -214 0
83 98 0
-83 -98 0
83 110 0
-83 -110 0
83 112 0
-83 -112 0
84 166 0
-84 -166 0
84 205 0
-84 -205 0
85 110 0
-85 -110 0
85 119 0
-85 -119 0
85 149 0
-85 -149 0
85 157 0
-85 -157 0
85 190 0
-85 -190 0
85 197 0
-85 -197 0
86 126 0
-86 -126 0
86 173 0
-86 -173 0
86 205 0
-86 -205 0
86 217 0
-86 -217 0
87 105 0
-87 -105 0
87 111 0
-87 -111 0
87 133 0
-87 -133 0
87 160 0
-87 -160 0
87 176 0
-87 -176 0
87 185 0
-87 -185 0
87 209 0
-87 -209 0
88 92 0
-88 -92 0
88 122 0
-88 -122 0
88 179 0
-88 -179 0
88 198 0
-88 -198 0
88 200 0
-88 -200 0
88 207 0
-88 -207 0
89 102 0
-89 -102 0
89 119 0
-89 -119 0
89 182 0
-89 -182 0
89 211 0
-89 -211 0
90 161 0
-90 -161 0
91 92 0
-91 -92 0
91 115 0
-91 -115 0
91 154 0
-91 -154 0
91 182 0
-91 -182 0
91 194 0
-91 -194 0
91 213 0
-91 -213 0
92 105 0
-92 -105 0
92 106 0
-92 -106 0
92 113 0
-92 -113 0
93 119 0
-93 -119 0
93 157 0
-93 -157 0
94 107 0
-94 -107 0
94 111 0
-94 -111 0
94 114 0
-94 -114 0
95 128 0
-95 -128 0
95 170 0
-95 -170 0
95 175 0
-95 -175 0
95 190 0
-95 -190 0
96 214 0
-96 -214 0
97 175 0
-97 -175 0
97 192 0
-97 -192 0
97 206 0
-97 -206 0
97 209 0
-97 -209 0
97 211 0
-97 -211 0
98 142 0
-98 -142 0
98 182 0
-98 -182 0
99 105 0
-99 -105 0
99 164 0
-99 -164 0
99 188 0
-99 -188 0
99 208 0
-99 -208 0
100 126 0
-100 -126 0
100 147 0
-100 -147 0
100 198 0
-100 -198 0
100 201 0
-100 -201 0
100 205 0
-100 -205 0
100 209 0
-100 -209 0
101 111 0
-101 -111 0
101 153 0
-101 -153 0
101 199 0
-101 -199 0
101 219 0
-101 -219 0
102 136 0
-102 -136 0
102 140 0
-102 -140 0
102 186 0
-102 -186 0
103 162 0
-103 -162 0
103 215 0
-103 -215 0
104 150 0
-104 -150 0
105 123 0
-105 -123 0
105 130 0
-105 -130 0
105 174 0
-105 -174 0
105 191 0
-105 -191 0
105 192 0
-105 -192 0
105 203 0
-105 -203 0
106 108 0
-106 -108 0
106 147 0
-106 -147 0
106 164 0
-106 -164 0
106 172 0
-106 -172 0
106 202 0
-106 -202 0
107 134 0
-107 -134 0
107 159 0
-107 -159 0
107 172 0
-107 -172 0
107 212 0
-107 -212 0
108 131 0
-108 -131 0
108 209 0
-108 -209 0
110 123 0
-110 -123 0
110 160 0
-110 -160 0
110 217 0
-110 -217 0
110 220 0
-110 -220 0
111 114 0
-111 -114 0
111 162 0
-111 -162 0
111 168 0
-111 -168 0
111 190 0
-111 -190 0
112 180 0
-112 -180 0
112 185 0
-112 -185 0
112 204 0
-112 -204 0
113 160 0
-113 -160 0
114 155 0
-114 -155 0
115 125 0
-115 -125 0
115 158 0
-115 -158 0
115 159 0
-115 -159 0
115 219 0
-115 -219 0
116 148 0
-116 -148 0
117 170 0
-117 -170 0
117 194 0
-117 -194 0
117 214 0
-117 -214 0
118 156 0
-118 -156 0
118 163 0
-118 -163 0
120 135 0
-120 -135 0
122 156 0
-122 -156 0
123 148 0
-123 -148 0
123 165 0
-123 -165 0
123 188 0
-123 -188 0
124 154 0
-124 -154 0
124 172 0
-124 -172 0
124 199 0
-124 -199 0
125 192 0
-125 -192 0
126 200 0
-126 -200 0
127 133 0
-127 -133 0
127 149 0
-127 -149 0
127 151 0
-127 -151 0
128 209 0
-128 -209 0
129 169 0
-129 -169 0
129 172 0
-129 -172 0
129 173 0
-129 -173 0
129 180 0
-129 -180 0
129 217 0
-129 -217 0
130 134 0
-130 -134 0
130 183 0
-130 -183 0
130 208 0
-130 -208 0
131 135 0
-131 -135 0
131 187 0
-131 -187 0
132 158 0
-132 -158 0
132 175 0
-132 -175 0
132 207 0
-132 -207 0
133 175 0
-133 -175 0
134 143 0
-134 -143 0
134 163 0
-134 -163 0
134 169 0
-134 -169 0
134 188 0
-134 -188 0
134 193 0
-134 -193 0
134 212 0
-134 -212 0
134 213 0
-134 -213 0
134 214 0
-134 -214 0
134 217 0
-134 -217 0
135 159 0
-135 -159 0
135 169 0
-135 -169 0
136 146 0
-136 -146 0
136 154 0
-136 -154 0
136 161 0
-136 -161 0
136 179 0
-136 -179 0
137 149 0
-137 -149 0
137 200 0
-137 -200 0
138 149 0
-138 -149 0
139 189 0
-139 -189 0
140 163 0
-140 -163 0
140 177 0
-140 -177 0
141 159 0
-141 -159 0
142 190 0
-142 -190 0
143 148 0
-143 -148 0
144 159 0
-144 -159 0
144 168 0
-144 -168 0
145 152 0
-145 -152 0
145 214 0
-145 -214 0
146 157 0
-146 -157 0
146 163 0
-146 -163 0
146 170 0
-146 -170 0
146 176 0
-146 -176 0
146 212 0
-146 -212 0
147 148 0
-147 -148 0
147 208 0
-147 -208 0
147 209 0
-147 -209 0
147 216 0
-147 -216 0
147 217 0
-147 -217 0
148 161 0
-148 -161 0
148 180 0
-148 -180 0
148 194 0
-148 -194 0
149 202 0
-149 -202 0
150 154 0
-150 -154 0
151 177 0
-151 -177 0
152 177 0
-152 -177 0
155 156 0
-155 -156 0
155 219 0
-155 -219 0
156 177 0
-156 -177 0
156 194 0
-156 -194 0
157 168 0
-157 -168 0
157 174 0
-157 -174 0
157 202 0
-157 -202 0
158 163 0
-158 -163 0
158 198 0
-158 -198 0
158 199 0
-158 -199 0
159 179 0
-159 -179 0
160 206 0
-160 -206 0
161 167 0
-161 -167 0
162 177 0
-162 -177 0
162 182 0
-162 -182 0
162 220 0
-162 -220 0
163 187 0
-163 -187 0
163 201 0
-163 -201 0
164 193 0
-164 -193 0
166 181 0
-166 -181 0
166 217 0
-166 -217 0
168 186 0
-168 -186 0
168 204 0
-168 -204 0
168 219 0
-168 -219 0
171 177 0
-171 -177 0
171 191 0
-171 -191 0
172 198 0
-172 -198 0
173 187 0
-173 -187 0
174 200 0
-174 -200 0
174 210 0
-174 -210 0
175 198 0
-175 -198 0
176 190 0
-176 -190 0
176 207 0
-176 -207 0
178 203 0
-178 -203 0
180 183 0
-180 -183 0
180 203 0
-180 -203 0
184 207 0
-184 -207 0
185 208 0
-185 -208 0
185 217 0
-185 -217 0
186 215 0
-186 -215 0
187 193 0
-187 -193 0
188 205 0
-188 -205 0
191 202 0
-191 -202 0
192 193 0
-192 -193 0
193 202 0
-193 -202 0
194 199 0
-194 -199 0
194 211 0
-194 -211 0
194 216 0
-194 -216 0
195 202 0
-195 -202 0
200 211 0
-200 -211 0
200 214 0
-200 -214 0
205 216 0
-205 -216 0
205 220 0
-205 -220 0
206 217 0
-206 -217 0
206 220 0
-206 -220 0
209 220 0
-209 -220 0
214 216 0
-214 -216 0
217 219 0
-217 -219 0
219 220 0
-219 -220 0
